

[Main]	Assistant_ID	AssistantItem_Index	Category	Group	Level	SummonDuration	Summon_LV	AttackUse	PassiveSingle	PassiveParty	TriggerSingle	ActiveParty	MoveSpeed
0	1	2476	1	1	1	900000	100	1	1	0	0	0	421
1	2	2477	1	1	2	900000	120	1	2	0	0	0	421
2	3	2478	1	1	3	900000	140	1	3	0	0	0	421
3	4	2479	1	1	4	900000	160	1	4	0	0	0	421
4	5	2480	1	2	1	900000	100	1	5	0	0	0	400
5	6	2481	1	2	2	900000	120	1	6	0	0	0	400
6	7	2482	1	2	3	900000	140	1	7	0	0	0	400
7	8	2483	1	2	4	900000	160	1	8	0	0	0	400
8	9	2484	1	3	1	900000	100	1	9	0	0	0	400
9	10	2485	1	3	2	900000	120	1	10	0	0	0	400
10	11	2486	1	3	3	900000	140	1	11	0	0	0	400
11	12	2487	1	3	4	900000	160	1	12	0	0	0	400
12	13	2488	1	4	1	900000	100	1	13	0	0	0	400
13	14	2489	1	4	2	900000	120	1	14	0	0	0	400
14	15	2490	1	4	3	900000	140	1	15	0	0	0	400
15	16	2491	1	4	4	900000	160	1	16	0	0	0	400
16	17	2492	1	5	1	900000	100	1	17	0	0	0	400
17	18	2493	1	5	2	900000	120	1	18	0	0	0	400
18	19	2494	1	5	3	900000	140	1	19	0	0	0	400
19	20	2495	1	5	4	900000	160	1	20	0	0	0	400
20	21	2496	1	6	1	900000	100	1	21	0	0	0	400
21	22	2497	1	6	2	900000	120	1	22	0	0	0	400
22	23	2498	1	6	3	900000	140	1	23	0	0	0	400
23	24	2499	1	6	4	900000	160	1	24	0	0	0	400
24	25	2500	2	1	1	900000	100	1	0	0	0	0	390
25	26	2501	2	1	2	900000	100	1	0	0	0	0	390
26	27	2502	2	1	3	900000	100	1	0	0	0	0	390
27	28	2503	2	1	4	900000	100	1	0	0	0	0	390
28	29	2504	2	2	1	900000	100	0	57	0	66	0	390
29	30	2505	2	2	2	900000	100	0	57	0	66	0	390
30	31	2506	2	2	3	900000	100	0	57	0	66	0	390
31	32	2507	2	2	4	900000	100	0	57	0	66	0	390
32	33	2508	2	3	1	900000	100	1	0	0	0	0	390
33	34	2509	2	3	2	900000	100	1	0	0	0	0	390
34	35	2510	2	3	3	900000	100	1	0	0	0	0	390
35	36	2511	2	3	4	900000	100	1	0	0	0	0	390
36	37	2512	2	4	1	900000	100	0	58	0	0	29	390
37	38	2513	2	4	2	900000	100	0	58	0	0	30	390
38	39	2514	2	4	3	900000	100	0	58	0	0	31	390
39	40	2515	2	4	4	900000	100	0	58	0	0	32	390
40	41	2516	2	5	1	900000	100	0	59	0	0	33	390
41	42	2517	2	5	2	900000	100	0	59	0	0	34	390
42	43	2518	2	5	3	900000	100	0	59	0	0	35	390
43	44	2519	2	5	4	900000	100	0	59	0	0	36	390
44	45	2520	3	1	1	900000	85	1	0	37	0	38	400
45	46	2521	3	1	2	900000	95	1	0	37	0	39	400
46	47	2522	3	1	3	900000	105	1	0	37	0	40	400
47	48	2523	3	1	4	900000	115	1	0	37	0	41	400
48	49	2524	3	2	1	900000	105	1	0	42	0	43	369
49	50	2525	3	2	2	900000	115	1	0	42	0	44	369
50	51	2526	3	2	3	900000	125	1	0	42	0	45	369
51	52	2527	3	2	4	900000	135	1	0	42	0	46	369
52	53	2528	3	3	1	900000	95	1	0	47	0	48	400
53	54	2529	3	3	2	900000	105	1	0	47	0	49	400
54	55	2530	3	3	3	900000	115	1	0	47	0	50	400
55	56	2531	3	3	4	900000	125	1	0	47	0	51	400
56	57	2592	2	6	1	900000	100	1	60	0	0	0	353
57	58	2593	2	6	2	900000	100	1	60	0	0	0	353
58	59	2594	2	6	3	900000	100	1	60	0	0	0	353
59	60	2595	2	6	4	900000	100	1	60	0	0	0	353
60	61	2596	2	7	1	900000	100	1	61	62	0	63	353
61	62	2597	2	7	2	900000	100	1	61	62	0	63	353
62	63	2598	2	7	3	900000	100	1	61	62	0	63	353
63	64	2599	2	7	4	900000	100	1	61	62	0	63	353
64	65	2636	2	8	1	900000	100	1	64	0	0	65	400
65	66	2637	2	8	2	900000	100	1	64	0	0	65	400
66	67	2638	2	8	3	900000	100	1	64	0	0	65	400
67	68	2639	2	8	4	900000	100	1	64	0	0	65	400
68	69	2532	2	9	1	900000	100	1	0	0	0	0	390
69	70	2533	2	9	2	900000	100	1	0	0	0	0	390
70	71	2534	2	9	3	900000	100	1	0	0	0	0	390
71	72	2535	2	9	4	900000	100	1	0	0	0	0	390
72	73	2536	2	10	1	900000	100	0	67	0	0	25	390
73	74	2537	2	10	2	900000	100	0	67	0	0	26	390
74	75	2538	2	10	3	900000	100	0	67	0	0	27	390
75	76	2539	2	10	4	900000	100	0	67	0	0	28	390
76	77	2540	2	11	1	900000	100	1	0	0	0	0	390
77	78	2541	2	11	2	900000	100	1	0	0	0	0	390
78	79	2542	2	11	3	900000	100	1	0	0	0	0	390
79	80	2543	2	11	4	900000	100	1	0	0	0	0	390
80	81	2544	2	12	1	900000	100	0	58	0	0	29	390
81	82	2545	2	12	2	900000	100	0	58	0	0	30	390
82	83	2546	2	12	3	900000	100	0	58	0	0	31	390
83	84	2547	2	12	4	900000	100	0	58	0	0	32	390
84	85	2548	2	13	1	900000	100	0	59	0	0	33	390
85	86	2549	2	13	2	900000	100	0	59	0	0	34	390
86	87	2550	2	13	3	900000	100	0	59	0	0	35	390
87	88	2551	2	13	4	900000	100	0	59	0	0	36	390
88	89	3232	3	4	1	900000	115	1	0	68	0	69	436
89	90	3233	3	4	2	900000	125	1	0	68	0	70	436
90	91	3234	3	4	3	900000	135	1	0	68	0	71	436
91	92	3235	3	4	4	900000	145	1	0	68	0	72	436
92	93	3236	3	5	1	900000	125	1	0	73	0	74	330
93	94	3237	3	5	2	900000	135	1	0	73	0	75	330
94	95	3238	3	5	3	900000	145	1	0	73	0	76	330
95	96	3239	3	5	4	900000	155	1	0	73	0	77	330
96	97	3240	3	6	1	900000	135	1	0	78	0	79	569
97	98	3241	3	6	2	900000	145	1	0	78	0	80	569
98	99	3242	3	6	3	900000	155	1	0	78	0	81	569
99	100	3243	3	6	4	900000	165	1	0	78	0	82	569

[Attack]	Assistant_ID	Base_Value	AR	Critical_Rate	Critical_Damage	Attack1_Reach	Attack1_Range	Attack1_Type	Attack1_Delay	Attack2_Reach	Attack2_Range	Attack2_Type	Attack2_Delay
0	1	600	50	10	10	1	1	0	2003	6	1	1	3000
1	2	650	50	10	10	1	1	0	2003	6	1	1	3000
2	3	700	50	10	10	1	1	0	2003	6	1	1	3000
3	4	750	50	10	10	1	1	0	2003	6	1	1	3000
4	5	550	80	15	50	1	1	0	2200	3	3	1	2206
5	6	600	80	15	50	1	1	0	2200	3	3	1	2206
6	7	650	80	15	50	1	1	0	2200	3	3	1	2206
7	8	700	80	15	50	1	1	0	2200	3	3	1	2206
8	9	600	60	10	10	8	1	0	2552	8	1	1	3298
9	10	650	60	10	10	8	1	0	2552	8	1	1	3298
10	11	700	60	10	10	8	1	0	2552	8	1	1	3298
11	12	750	60	10	10	8	1	0	2552	8	1	1	3298
12	13	590	70	20	50	8	1	0	2009	8	1	1	2546
13	14	650	70	20	50	8	1	0	2009	8	1	1	2546
14	15	710	70	20	50	8	1	0	2009	8	1	1	2546
15	16	770	70	20	50	8	1	0	2009	8	1	1	2546
16	17	500	50	30	100	5	1	0	3503	2	3	1	2500
17	18	550	50	30	100	5	1	0	3503	2	3	1	2500
18	19	600	50	30	100	5	1	0	3503	2	3	1	2500
19	20	650	50	30	100	5	1	0	3503	2	3	1	2500
20	21	550	60	20	45	5	1	0	2003	2	3	1	2690
21	22	600	60	20	45	5	1	0	2003	2	3	1	2690
22	23	650	60	20	45	5	1	0	2003	2	3	1	2690
23	24	700	60	20	45	5	1	0	2003	2	3	1	2690
24	25	800	75	75	250	1	2	1	3000	0	2	1	3500
25	26	860	50	75	250	1	2	1	3000	0	2	1	3500
26	27	920	50	75	250	1	2	1	3000	0	2	1	3500
27	28	980	50	75	250	1	2	1	3000	0	2	1	3500
28	33	1500	70	5	10	1	2	1	3000	0	2	1	3500
29	34	1560	70	5	10	1	2	1	3000	0	2	1	3500
30	35	1620	70	5	10	1	2	1	3000	0	2	1	3500
31	36	1680	70	5	10	1	2	1	3000	0	2	1	3500
32	45	680	75	20	50	4	1	0	3400	2	1	1	3947
33	46	770	75	20	50	4	1	0	3400	2	1	1	3947
34	47	860	75	20	50	4	1	0	3400	2	1	1	3947
35	48	950	75	20	50	4	1	0	3400	2	1	1	3947
36	49	1170	75	10	20	9	1	0	3075	2	1	1	3332
37	50	1260	75	10	20	9	1	0	3075	2	1	1	3332
38	51	1350	75	10	20	9	1	0	3075	2	1	1	3332
39	52	1440	75	10	20	9	1	0	3075	2	1	1	3332
40	53	880	75	20	50	4	1	0	2206	8	3	1	2690
41	54	960	75	20	50	4	1	0	2206	8	3	1	2690
42	55	1040	75	20	50	4	1	0	2206	8	3	1	2690
43	56	1120	75	20	50	4	1	0	2206	8	3	1	2690
44	57	700	60	20	50	1	1	0	2993	1	1	1	3000
45	58	700	60	20	50	1	1	0	2993	1	1	1	3000
46	59	700	60	20	50	1	1	0	2993	1	1	1	3000
47	60	700	60	20	50	1	1	0	2993	1	1	1	3000
48	61	700	60	20	50	1	1	0	2993	1	1	1	3000
49	62	700	60	20	50	1	1	0	2993	1	1	1	3000
50	63	700	60	20	50	1	1	0	2993	1	1	1	3000
51	64	700	60	20	50	1	1	0	2993	1	1	1	3000
52	65	700	100	30	200	1	1	0	2500	0	0	0	0
53	66	700	100	30	200	1	1	0	2500	0	0	0	0
54	67	700	100	30	200	1	1	0	2500	0	0	0	0
55	68	700	100	30	200	1	1	0	2500	0	0	0	0
56	69	800	50	75	250	1	2	1	3000	0	2	1	3500
57	70	860	50	75	250	1	2	1	3000	0	2	1	3500
58	71	920	50	75	250	1	2	1	3000	0	2	1	3500
59	72	980	50	75	250	1	2	1	3000	0	2	1	3500
60	77	1500	70	5	10	1	2	1	3000	0	2	1	3500
61	78	1560	70	5	10	1	2	1	3000	0	2	1	3500
62	79	1620	70	5	10	1	2	1	3000	0	2	1	3500
63	80	1680	70	5	10	1	2	1	3000	0	2	1	3500
64	89	900	75	20	20	2	2	1	2500	1	1	0	2200
65	90	980	75	20	20	2	2	1	2500	1	1	0	2200
66	91	1060	75	20	20	2	2	1	2500	1	1	0	2200
67	92	1140	75	20	20	2	2	1	2500	1	1	0	2200
68	93	1175	75	20	40	5	1	0	3233	4	2	1	3000
69	94	1265	75	20	40	5	1	0	3233	4	2	1	3000
70	95	1355	75	20	40	5	1	0	3233	4	2	1	3000
71	96	1445	75	20	40	5	1	0	3233	4	2	1	3000
72	97	1300	75	20	20	3	1	0	3200	3	2	1	3600
73	98	1380	75	20	20	3	1	0	3200	3	2	1	3600
74	99	1460	75	20	20	3	1	0	3200	3	2	1	3600
75	100	1540	75	20	20	3	1	0	3200	3	2	1	3600

[Buff]	AssistantSkill_ID	Buff_Group	Skill_Level	Order	Skill_Type	TriggerValue	ForceCode_ID	Value	Limit_Value	Target	DurationTime	CoolTime
0	1	1	1	0	1	0	3	5	0	1	8000	2000
1	2	1	2	0	1	0	3	7	0	1	8000	2000
2	2	1	2	1	1	0	6	20	0	1	8000	2000
3	3	1	3	0	1	0	3	10	0	1	8000	2000
4	3	1	3	1	1	0	6	50	0	1	8000	2000
5	4	1	4	0	1	0	3	15	0	1	8000	2000
6	4	1	4	1	1	0	6	80	0	1	8000	2000
7	5	2	1	0	1	0	30	1	0	1	8000	2000
8	6	2	2	0	1	0	30	1	0	1	8000	2000
9	6	2	2	1	1	0	6	20	0	1	8000	2000
10	7	2	3	0	1	0	30	2	0	1	8000	2000
11	7	2	3	1	1	0	6	50	0	1	8000	2000
12	8	2	4	0	1	0	30	3	0	1	8000	2000
13	8	2	4	1	1	0	6	80	0	1	8000	2000
14	9	3	1	0	1	0	4	5	0	1	8000	2000
15	10	3	2	0	1	0	4	7	0	1	8000	2000
16	10	3	2	1	1	0	6	20	0	1	8000	2000
17	11	3	3	0	1	0	4	10	0	1	8000	2000
18	11	3	3	1	1	0	6	50	0	1	8000	2000
19	12	3	4	0	1	0	4	15	0	1	8000	2000
20	12	3	4	1	1	0	6	80	0	1	8000	2000
21	13	4	1	0	1	0	32	1	0	1	8000	2000
22	14	4	2	0	1	0	32	1	0	1	8000	2000
23	14	4	2	1	1	0	6	20	0	1	8000	2000
24	15	4	3	0	1	0	32	2	0	1	8000	2000
25	15	4	3	1	1	0	6	50	0	1	8000	2000
26	16	4	4	0	1	0	32	3	0	1	8000	2000
27	16	4	4	1	1	0	6	80	0	1	8000	2000
28	17	5	1	0	1	0	5	10	0	1	8000	2000
29	18	5	2	0	1	0	5	15	0	1	8000	2000
30	18	5	2	1	1	0	7	50	0	1	8000	2000
31	19	5	3	0	1	0	5	20	0	1	8000	2000
32	19	5	3	1	1	0	7	100	0	1	8000	2000
33	20	5	4	0	1	0	5	30	0	1	8000	2000
34	20	5	4	1	1	0	7	200	0	1	8000	2000
35	21	6	1	0	1	0	1	50	0	1	8000	2000
36	22	6	2	0	1	0	1	150	0	1	8000	2000
37	22	6	2	1	1	0	2	50	0	1	8000	2000
38	23	6	3	0	1	0	1	200	0	1	8000	2000
39	23	6	3	1	1	0	2	100	0	1	8000	2000
40	24	6	4	0	1	0	1	300	0	1	8000	2000
41	24	6	4	1	1	0	2	150	0	1	8000	2000
42	25	7	1	0	2	0	88	50	0	2	30000	300000
43	26	7	2	0	2	0	88	100	0	2	30000	300000
44	27	7	3	0	2	0	88	150	0	2	30000	300000
45	28	7	4	0	2	0	88	200	0	2	30000	300000
46	29	8	1	0	2	0	58	5	20	2	30000	180000
47	30	8	2	0	2	0	58	5	30	2	30000	180000
48	31	8	3	0	2	0	58	5	40	2	30000	180000
49	32	8	4	0	2	0	58	5	50	2	30000	180000
50	33	9	1	0	2	0	59	5	30	2	45000	180000
51	34	9	2	0	2	0	59	5	45	2	45000	180000
52	35	9	3	0	2	0	59	5	60	2	45000	180000
53	36	9	4	0	2	0	59	5	75	2	45000	180000
54	37	10	1	0	1	0	34	1	0	2	8000	2000
55	38	11	1	0	2	0	12	5	0	2	45000	120000
56	39	11	2	0	2	0	12	10	0	2	45000	120000
57	40	11	3	0	2	0	12	15	0	2	45000	120000
58	41	11	4	0	2	0	12	20	0	2	45000	120000
59	42	12	1	0	1	0	8	3	0	2	8000	2000
60	43	13	1	0	2	0	9	1	0	2	30000	120000
61	44	13	2	0	2	0	9	2	0	2	30000	120000
62	45	13	3	0	2	0	9	3	0	2	30000	120000
63	46	13	4	0	2	0	9	5	0	2	30000	120000
64	47	14	1	0	1	0	2	50	0	2	8000	2000
65	48	15	1	0	2	0	1	50	0	2	60000	120000
66	49	15	2	0	2	0	1	100	0	2	60000	120000
67	50	15	3	0	2	0	1	300	0	2	60000	120000
68	51	15	4	0	2	0	1	500	0	2	60000	120000
69	52	16	1	0	1	0	37	3	0	2	8000	2000
70	53	17	1	0	3	50	63	100	0	1	0	30000
71	54	17	2	0	3	50	63	250	0	1	0	30000
72	55	17	3	0	3	50	63	500	0	1	0	30000
73	56	17	4	0	3	50	63	1000	0	1	0	30000
74	57	18	1	0	1	0	88	50	0	1	8000	2000
75	58	19	1	0	1	0	1	100	0	1	8000	2000
76	59	20	1	0	1	0	1	100	0	1	8000	2000
77	60	21	1	0	1	0	3	10	0	1	8000	2000
78	60	21	1	1	1	0	4	10	0	1	8000	2000
79	60	21	1	2	1	0	6	50	0	1	8000	2000
80	60	21	1	3	1	0	30	2	0	1	8000	2000
81	60	21	1	4	1	0	32	2	0	1	8000	2000
82	61	22	1	0	1	0	5	20	0	1	8000	2000
83	61	22	1	1	1	0	7	100	0	1	8000	2000
84	61	22	1	2	1	0	1	100	0	1	8000	2000
85	62	23	1	0	1	0	1	100	0	2	8000	2000
86	63	24	1	0	2	0	88	50	0	2	30000	300000
87	64	25	1	0	1	0	3	10	0	1	8000	2000
88	64	25	1	1	1	0	4	10	0	1	8000	2000
89	65	26	1	0	2	0	8	5	0	2	30000	900000
90	66	27	1	0	3	50	63	300	0	1	0	20000
91	67	28	1	0	1	0	1	100	0	1	8000	2000
92	68	29	1	0	1	0	1	50	0	2	8000	2000
93	69	30	1	0	2	0	37	20	0	2	60000	120000
94	70	30	2	0	2	0	37	35	0	2	60000	120000
95	71	30	3	0	2	0	37	55	0	2	60000	120000
96	72	30	4	0	2	0	37	80	0	2	60000	120000
97	73	31	1	0	1	0	5	5	0	2	8000	2000
98	74	32	1	0	2	0	58	2	10	2	30000	120000
99	75	32	2	0	2	0	58	2	20	2	30000	120000
100	76	32	3	0	2	0	58	2	30	2	30000	120000
101	77	32	4	0	2	0	58	2	40	2	30000	120000
102	78	33	1	0	1	0	3	5	0	2	8000	2000
103	78	33	1	1	1	0	4	5	0	2	8000	2000
104	79	34	1	0	2	0	59	2	20	2	45000	120000
105	80	34	2	0	2	0	59	2	30	2	45000	120000
106	81	34	3	0	2	0	59	2	40	2	45000	120000
107	82	34	4	0	2	0	59	2	50	2	45000	120000

[Item]	Assistant_Level	Item_ID
0	1	2468
1	1	3170
2	2	2469
3	2	3171
4	3	2470
5	3	3172
6	4	2471
7	4	3173

